c Sudoku solution
p cnf 729 0
237 0
258 0
295 0
378 0
389 0
393 0
461 0
485 0
543 0
579 0
596 0
614 0
636 0
665 0
688 0
697 0
757 0
822 0
868 0
448 0
456 0
567 0
554 0
347 0
875 0
917 0
887 0
427 0
177 0
934 0
953 0
783 0
969 0
851 0
976 0
998 0
241 0
925 0
745 0
942 0
981 0
649 0
652 0
159 0
355 0
671 0
582 0
494 0
473 0
623 0
191 0
272 0
774 0
792 0
899 0
766 0
844 0
816 0
833 0
146 0
184 0
286 0
128 0
326 0
224 0
219 0
113 0
135 0
162 0
364 0
263 0
515 0
718 0
311 0
332 0
412 0
439 0
521 0
538 0
729 0
731 0
